QBPP_HJ-_35_025_10_3
35 202 243
20 19 29 14 30 14 11 17 25 40 49 8 44 12 28 49 37 32 38 15 35 49 43 44 46 12 22 21 43 15 19 50 7 39 31
    0    0    0    0    0    0  -89    0    0  -19  -23    0    0  -25    0  -60    0  -48    0    0    0    0  -55  -46  -19    0    0    0    0    0    0    0    0    0    0
    0    0    0    0    0  -63  -15  -27    0    0    0    0  -37    0   -2    0    0    0  -19    0  -78    0    0    0    0   -3    0    0    0    0    0    0    0    0    0
    0    0    0  -96    0    0    0    0    0    0    0    0    0    0    0    0    0    0    0    0  -61   -3    0    0    0    0  -44  -59    0    0  -65    0    0    0    0
    0    0  -96    0    0    0    0    0  -61    0  -27   -2  -56    0    0    0    0    0    0    0    0  -43    0    0    0  -90  -53   -9  -63    0    0    0    0  -79    0
    0    0    0    0    0    0    0    0    0    0    0    0    0    0    0    0    0    0    0    0    0  -31    0    0  -95    0    0  -97    0  -40  -10  -16    0    0    0
    0  -63    0    0    0    0    0    0    0    0    0    0    0    0    0  -31    0    0    0    0    0  -41  -52    0    0    0    0    0    0  -16    0    0    0    0    0
  -89  -15    0    0    0    0    0    0  -67    0  -51  -98    0    0    0  -16  -12    0    0  -67    0    0    0    0  -17  -86    0    0  -35    0    0    0    0    0    0
    0  -27    0    0    0    0    0    0   -2    0    0    0    0    0    0    0    0    0  -87  -30    0  -91    0    0    0    0    0    0    0  -46    0    0  -48    0    0
    0    0    0  -61    0    0  -67   -2    0    0    0    0    0    0    0    0    0    0    0    0    0    0    0    0    0  -40    0    0    0    0    0  -36    0    0    0
  -19    0    0    0    0    0    0    0    0    0    0    0  -94    0    0  -70    0  -53    0    0    0  -31    0    0  -65  -72    0    0  -21    0  -12    0    0    0    0
  -23    0    0  -27    0    0  -51    0    0    0    0  -47    0  -93    0    0  -15    0    0  -37    0  -28    0    0    0    0    0    0    0  -33    0    0    0  -53  -75
    0    0    0   -2    0    0  -98    0    0    0  -47    0  -81  -70    0    0  -30    0    0    0    0    0    0   -3    0  -56  -13    0    0  -91  -79  -43    0    0    0
    0  -37    0  -56    0    0    0    0    0  -94    0  -81    0  -79  -37    0   -5    0  -35    0    0    0    0    0    0    0    0    0    0    0    0    0    0    0    0
  -25    0    0    0    0    0    0    0    0    0  -93  -70  -79    0  -98  -92    0    0    0   -6    0  -65   -5    0    0    0    0    0    0    0   -8    0    0    0    0
    0   -2    0    0    0    0    0    0    0    0    0    0  -37  -98    0    0    0  -31    0  -79    0  -76    0  -61    0    0    0    0  -48    0    0    0    0    0    0
  -60    0    0    0    0  -31  -16    0    0  -70    0    0    0  -92    0    0   -6    0  -79    0    0    0    0    0    0    0    0    0    0  -89    0    0    0    0    0
    0    0    0    0    0    0  -12    0    0    0  -15  -30   -5    0    0   -6    0    0    0  -15    0    0    0    0    0    0    0    0    0  -10  -42    0  -61    0    0
  -48    0    0    0    0    0    0    0    0  -53    0    0    0    0  -31    0    0    0  -66    0  -78    0    0    0    0    0    0    0  -90    0    0    0   -3    0   -7
    0  -19    0    0    0    0    0  -87    0    0    0    0  -35    0    0  -79    0  -66    0    0    0  -96  -61    0    0    0  -90    0    0    0    0    0    0    0  -12
    0    0    0    0    0    0  -67  -30    0    0  -37    0    0   -6  -79    0  -15    0    0    0    0    0    0  -91  -68    0    0    0    0    0  -92    0    0    0  -90
    0  -78  -61    0    0    0    0    0    0    0    0    0    0    0    0    0    0  -78    0    0    0  -96    0    0    0    0    0    0    0   -5    0    0    0    0    0
    0    0   -3  -43  -31  -41    0  -91    0  -31  -28    0    0  -65  -76    0    0    0  -96    0  -96    0  -85    0    0    0    0    0    0    0    0    0    0  -83    0
  -55    0    0    0    0  -52    0    0    0    0    0    0    0   -5    0    0    0    0  -61    0    0  -85    0    0  -69  -25  -79    0    0    0    0  -23  -48    0    0
  -46    0    0    0    0    0    0    0    0    0    0   -3    0    0  -61    0    0    0    0  -91    0    0    0    0    0   -4    0  -20    0    0    0    0    0  -36    0
  -19    0    0    0  -95    0  -17    0    0  -65    0    0    0    0    0    0    0    0    0  -68    0    0  -69    0    0  -44    0    0    0    0    0    0    0  -88    0
    0   -3    0  -90    0    0  -86    0  -40  -72    0  -56    0    0    0    0    0    0    0    0    0    0  -25   -4  -44    0    0    0    0    0    0    0  -35    0    0
    0    0  -44  -53    0    0    0    0    0    0    0  -13    0    0    0    0    0    0  -90    0    0    0  -79    0    0    0    0    0  -92  -27    0    0    0    0    0
    0    0  -59   -9  -97    0    0    0    0    0    0    0    0    0    0    0    0    0    0    0    0    0    0  -20    0    0    0    0    0    0    0    0    0    0    0
    0    0    0  -63    0    0  -35    0    0  -21    0    0    0    0  -48    0    0  -90    0    0    0    0    0    0    0    0  -92    0    0    0    0    0    0    0    0
    0    0    0    0  -40  -16    0  -46    0    0  -33  -91    0    0    0  -89  -10    0    0    0   -5    0    0    0    0    0  -27    0    0    0    0   -5    0    0    0
    0    0  -65    0  -10    0    0    0    0  -12    0  -79    0   -8    0    0  -42    0    0  -92    0    0    0    0    0    0    0    0    0    0    0    0    0    0    0
    0    0    0    0  -16    0    0    0  -36    0    0  -43    0    0    0    0    0    0    0    0    0    0  -23    0    0    0    0    0    0   -5    0    0    0    0    0
    0    0    0    0    0    0    0  -48    0    0    0    0    0    0    0    0  -61   -3    0    0    0    0  -48    0    0  -35    0    0    0    0    0    0    0  -16    0
    0    0    0  -79    0    0    0    0    0    0  -53    0    0    0    0    0    0    0    0    0    0  -83    0  -36  -88    0    0    0    0    0    0    0  -16    0  -76
    0    0    0    0    0    0    0    0    0    0  -75    0    0    0    0    0    0   -7  -12  -90    0    0    0    0    0    0    0    0    0    0    0    0    0  -76    0
